12 66
1 2 2
1 3 3
1 4 1
1 5 1
1 6 2
1 7 1
1 8 1
1 9 1
1 10 3
1 11 4
1 12 4
2 3 2
2 4 1
2 5 2
2 6 2
2 7 3
2 8 5
2 9 3
2 10 3
2 11 3
2 12 5
3 4 3
3 5 4
3 6 5
3 7 1
3 8 4
3 9 5
3 10 5
3 11 3
3 12 5
4 5 5
4 6 1
4 7 5
4 8 1
4 9 2
4 10 1
4 11 1
4 12 1
5 6 5
5 7 5
5 8 2
5 9 2
5 10 5
5 11 5
5 12 3
6 7 4
6 8 1
6 9 2
6 10 1
6 11 1
6 12 5
7 8 4
7 9 5
7 10 2
7 11 2
7 12 2
8 9 3
8 10 5
8 11 2
8 12 3
9 10 1
9 11 1
9 12 1
10 11 1
10 12 2
11 12 2
